
******************************************************************************
This program contains Ipopt, a library for large-scale nonlinear optimization.
 Ipopt is released as open source code under the Eclipse Public License (EPL).
         For more information visit http://projects.coin-or.org/Ipopt

This version of Ipopt was compiled from source code available at
    https://github.com/IDAES/Ipopt as part of the Institute for the Design of
    Advanced Energy Systems Process Systems Engineering Framework (IDAES PSE
    Framework) Copyright (c) 2018-2019. See https://github.com/IDAES/idaes-pse.

This version of Ipopt was compiled using HSL, a collection of Fortran codes
    for large-scale scientific computation.  All technical papers, sales and
    publicity material resulting from use of the HSL codes within IPOPT must
    contain the following acknowledgement:
        HSL, a collection of Fortran codes for large-scale scientific
        computation. See http://www.hsl.rl.ac.uk.
******************************************************************************

This is Ipopt version 3.13.2, running with linear solver ma27.

Number of nonzeros in equality constraint Jacobian...:      928
Number of nonzeros in inequality constraint Jacobian.:        0
Number of nonzeros in Lagrangian Hessian.............:      806

Total number of variables............................:      403
                     variables with only lower bounds:      124
                variables with lower and upper bounds:      217
                     variables with only upper bounds:        0
Total number of equality constraints.................:      402
Total number of inequality constraints...............:        0
        inequality constraints with only lower bounds:        0
   inequality constraints with lower and upper bounds:        0
        inequality constraints with only upper bounds:        0

iter    objective    inf_pr   inf_du lg(mu)  ||d||  lg(rg) alpha_du alpha_pr  ls
   0  0.0000000e+00 1.12e+00 1.11e-15  -1.0 0.00e+00    -  0.00e+00 0.00e+00   0
   1  2.5958413e-01 9.23e-01 2.09e+05  -1.0 1.58e+05    -  2.38e-01 1.97e-01h  1
   2  2.9986117e-01 9.06e-01 2.05e+05  -1.0 1.53e+05    -  5.17e-01 1.79e-02h  1
   3  2.5606191e+00 6.06e-01 1.30e+05  -1.0 1.74e+05    -  5.21e-01 3.85e-01h  1
   4  1.2968557e+01 1.35e-01 2.26e+04  -1.0 1.17e+05    -  6.33e-01 9.90e-01h  1
   5  1.4093323e+01 9.61e-03 5.15e+02  -1.0 8.53e+03    -  9.56e-01 9.90e-01h  1
   6  1.4110699e+01 1.41e-04 8.76e+00  -1.0 2.83e+02    -  9.90e-01 9.90e-01h  1
   7  1.4111683e+01 1.37e-04 1.98e+07  -1.0 6.20e+02    -  9.90e-01 3.09e-02f  6
   8  1.4116366e+01 1.33e-04 3.96e+07  -1.0 2.96e+03    -  9.90e-01 3.09e-02f  6
   9  1.4278425e+01 4.61e-04 6.16e+05  -1.0 3.23e+03    -  1.00e+00 9.90e-01H  1
iter    objective    inf_pr   inf_du lg(mu)  ||d||  lg(rg) alpha_du alpha_pr  ls
  10  1.4256450e+01 2.46e-05 2.20e+07  -1.0 4.31e+02    -  1.00e+00 9.90e-01h  1
  11  1.4259085e+01 3.65e-07 2.20e+09  -1.0 5.17e+01    -  1.00e+00 9.90e-01h  1
  12  1.4259106e+01 3.67e-09 2.20e+11  -1.0 3.98e-01    -  1.00e+00 9.90e-01h  1
In iteration 12, 31 Slacks too small, adjusting variable bounds
  13  1.4259106e+01 3.68e-11 2.20e+13  -1.0 3.97e-03    -  1.00e+00 9.90e-01h  1
  14  1.4259106e+01 1.40e-11 9.77e-02  -1.0 3.97e-05    -  1.00e+00 1.00e+00h  1
  15  1.4259070e+01 1.93e-11 2.19e+13  -9.0 4.05e+03    -  9.75e-01 1.73e-04f 13
  16  1.4259052e+01 2.40e-11 2.24e+13  -9.0 3.00e+03    -  9.94e-01 1.17e-04f 14
  17  1.4259034e+01 2.87e-11 2.24e+13  -9.0 2.88e+03    -  9.96e-01 1.22e-04f 14
  18  1.4259024e+01 2.99e-11 2.24e+13  -9.0 2.87e+03    -  1.00e+00 6.10e-05f 15
  19  1.4259015e+01 3.10e-11 2.24e+13  -9.0 2.87e+03    -  1.00e+00 6.10e-05f 15
iter    objective    inf_pr   inf_du lg(mu)  ||d||  lg(rg) alpha_du alpha_pr  ls
  20  1.4111965e+01 1.77e-03 1.25e+08  -9.0 2.87e+03    -  1.00e+00 1.00e+00f  1
  21  1.4110348e+01 4.55e-08 1.32e-02  -9.0 2.87e+01    -  1.00e+00 1.00e+00h  1
  22  1.4110348e+01 5.90e-12 6.67e-11  -9.0 5.52e-04    -  1.00e+00 1.00e+00h  1

Number of Iterations....: 22

                                   (scaled)                 (unscaled)
Objective...............:   1.4110347794291302e+01    1.4110347794291302e+01
Dual infeasibility......:   6.6690230785785595e-11    6.6690230785785595e-11
Constraint violation....:   5.9028337773270323e-12    5.9028337773270323e-12
Complementarity.........:   9.0909090909090931e-10    9.0909090909090931e-10
Overall NLP error.......:   8.1076969970836667e-12    9.0909090909090931e-10


Number of objective function evaluations             = 117
Number of objective gradient evaluations             = 23
Number of equality constraint evaluations            = 117
Number of inequality constraint evaluations          = 0
Number of equality constraint Jacobian evaluations   = 23
Number of inequality constraint Jacobian evaluations = 0
Number of Lagrangian Hessian evaluations             = 22
Total CPU secs in IPOPT (w/o function evaluations)   =      0.053
Total CPU secs in NLP function evaluations           =      1.180

EXIT: Optimal Solution Found.
